&control
    calculation='bands'
    prefix='NbS2'
    outdir='./Output'
    pseudo_dir='./'
    tstress = .true.
    tprnfor = .true.
    etot_conv_thr = 1.0D-6
    forc_conv_thr = 1.0D-5
    verbosity = 'high'
    nstep = 200
/
&system
    ibrav = 0
    celldm(1) = 6.34
    celldm(3) = 6
    nat = 3, ntyp = 2,
    ecutwfc = 60.0
    ecutrho = 500.0
    occupations = 'smearing'
    degauss = 0.01
    smearing = 'mp'
    input_dft = 'PBE'
    nbnd = 19
    tot_charge = -0.7
/
&electrons
    conv_thr = 1.0d-8,
    mixing_beta = 0.7,
/

ATOMIC_SPECIES
 Nb 92.906 Nb_ONCV_PBE-1.2.upf
 S  32.065 S_ONCV_PBE-1.2.upf

CELL_PARAMETERS (alat)
   1.068610505   0.000000000  -0.000000000
  -0.534305252   0.925443844   0.000000000
   0.000000000  -0.000000000   3.029330552

ATOMIC_POSITIONS (crystal)
S             0.3333333330        0.6666666660        0.6478418704
Nb            0.6666666660        0.3333333330        0.5000000000
S             0.3333333330        0.6666666660        0.3521581296

K_POINTS crystal_b
5
 0.0000000000     0.0000000000     0.0000000000 30 ! G
 0.3333333333    -0.6666666667     0.0000000000 30 ! K'
 0.0000000000    -0.5000000000     0.0000000000 30 ! M
-0.3333333333    -0.3333333333     0.0000000000 30 ! K
 0.0000000000     0.0000000000     0.0000000000 30 ! G
