&control
    calculation='nscf'
    prefix='NbS2'
    outdir='./Output'
    pseudo_dir='./'
    tstress = .true.
    tprnfor = .true.
    etot_conv_thr = 1.0D-6
    forc_conv_thr = 1.0D-5
    verbosity = 'high'
    nstep = 200
/
&system
    ibrav = 0
    celldm(1) = 6.34
    celldm(3) = 6
    nat = 3, ntyp = 2,
    ecutwfc = 60.0
    ecutrho = 500.0
    occupations = 'smearing'
    degauss = 0.01
    smearing = 'mp'
    nbnd = 40
    input_dft = 'PBE'
    lspinorb = .true.
    noncolin = .true.
    starting_magnetization(1) = 1
    nosym = .true.
/
&electrons
    conv_thr = 1.0d-8,
    mixing_beta = 0.7,
/

ATOMIC_SPECIES
 Nb 92.906 Nb_ONCV_PBE_FR-1.0.upf
 S  32.065 S_ONCV_PBE_FR-1.1.upf

CELL_PARAMETERS (alat)
   0.997627786  -0.000000000  -0.000000000
  -0.498813893   0.863971006   0.000000000
   0.000000000  -0.000000000   3.029330552

ATOMIC_POSITIONS (crystal)
S             0.3333333330        0.6666666660        0.6541077132
Nb            0.6666666660        0.3333333330        0.5000000000
S             0.3333333330        0.6666666660        0.3458922868

K_POINTS crystal
400
  0.00000000  0.00000000  0.00000000  2.500000e-03 
  0.00000000  0.05000000  0.00000000  2.500000e-03 
  0.00000000  0.10000000  0.00000000  2.500000e-03 
  0.00000000  0.15000000  0.00000000  2.500000e-03 
  0.00000000  0.20000000  0.00000000  2.500000e-03 
  0.00000000  0.25000000  0.00000000  2.500000e-03 
  0.00000000  0.30000000  0.00000000  2.500000e-03 
  0.00000000  0.35000000  0.00000000  2.500000e-03 
  0.00000000  0.40000000  0.00000000  2.500000e-03 
  0.00000000  0.45000000  0.00000000  2.500000e-03 
  0.00000000  0.50000000  0.00000000  2.500000e-03 
  0.00000000  0.55000000  0.00000000  2.500000e-03 
  0.00000000  0.60000000  0.00000000  2.500000e-03 
  0.00000000  0.65000000  0.00000000  2.500000e-03 
  0.00000000  0.70000000  0.00000000  2.500000e-03 
  0.00000000  0.75000000  0.00000000  2.500000e-03 
  0.00000000  0.80000000  0.00000000  2.500000e-03 
  0.00000000  0.85000000  0.00000000  2.500000e-03 
  0.00000000  0.90000000  0.00000000  2.500000e-03 
  0.00000000  0.95000000  0.00000000  2.500000e-03 
  0.05000000  0.00000000  0.00000000  2.500000e-03 
  0.05000000  0.05000000  0.00000000  2.500000e-03 
  0.05000000  0.10000000  0.00000000  2.500000e-03 
  0.05000000  0.15000000  0.00000000  2.500000e-03 
  0.05000000  0.20000000  0.00000000  2.500000e-03 
  0.05000000  0.25000000  0.00000000  2.500000e-03 
  0.05000000  0.30000000  0.00000000  2.500000e-03 
  0.05000000  0.35000000  0.00000000  2.500000e-03 
  0.05000000  0.40000000  0.00000000  2.500000e-03 
  0.05000000  0.45000000  0.00000000  2.500000e-03 
  0.05000000  0.50000000  0.00000000  2.500000e-03 
  0.05000000  0.55000000  0.00000000  2.500000e-03 
  0.05000000  0.60000000  0.00000000  2.500000e-03 
  0.05000000  0.65000000  0.00000000  2.500000e-03 
  0.05000000  0.70000000  0.00000000  2.500000e-03 
  0.05000000  0.75000000  0.00000000  2.500000e-03 
  0.05000000  0.80000000  0.00000000  2.500000e-03 
  0.05000000  0.85000000  0.00000000  2.500000e-03 
  0.05000000  0.90000000  0.00000000  2.500000e-03 
  0.05000000  0.95000000  0.00000000  2.500000e-03 
  0.10000000  0.00000000  0.00000000  2.500000e-03 
  0.10000000  0.05000000  0.00000000  2.500000e-03 
  0.10000000  0.10000000  0.00000000  2.500000e-03 
  0.10000000  0.15000000  0.00000000  2.500000e-03 
  0.10000000  0.20000000  0.00000000  2.500000e-03 
  0.10000000  0.25000000  0.00000000  2.500000e-03 
  0.10000000  0.30000000  0.00000000  2.500000e-03 
  0.10000000  0.35000000  0.00000000  2.500000e-03 
  0.10000000  0.40000000  0.00000000  2.500000e-03 
  0.10000000  0.45000000  0.00000000  2.500000e-03 
  0.10000000  0.50000000  0.00000000  2.500000e-03 
  0.10000000  0.55000000  0.00000000  2.500000e-03 
  0.10000000  0.60000000  0.00000000  2.500000e-03 
  0.10000000  0.65000000  0.00000000  2.500000e-03 
  0.10000000  0.70000000  0.00000000  2.500000e-03 
  0.10000000  0.75000000  0.00000000  2.500000e-03 
  0.10000000  0.80000000  0.00000000  2.500000e-03 
  0.10000000  0.85000000  0.00000000  2.500000e-03 
  0.10000000  0.90000000  0.00000000  2.500000e-03 
  0.10000000  0.95000000  0.00000000  2.500000e-03 
  0.15000000  0.00000000  0.00000000  2.500000e-03 
  0.15000000  0.05000000  0.00000000  2.500000e-03 
  0.15000000  0.10000000  0.00000000  2.500000e-03 
  0.15000000  0.15000000  0.00000000  2.500000e-03 
  0.15000000  0.20000000  0.00000000  2.500000e-03 
  0.15000000  0.25000000  0.00000000  2.500000e-03 
  0.15000000  0.30000000  0.00000000  2.500000e-03 
  0.15000000  0.35000000  0.00000000  2.500000e-03 
  0.15000000  0.40000000  0.00000000  2.500000e-03 
  0.15000000  0.45000000  0.00000000  2.500000e-03 
  0.15000000  0.50000000  0.00000000  2.500000e-03 
  0.15000000  0.55000000  0.00000000  2.500000e-03 
  0.15000000  0.60000000  0.00000000  2.500000e-03 
  0.15000000  0.65000000  0.00000000  2.500000e-03 
  0.15000000  0.70000000  0.00000000  2.500000e-03 
  0.15000000  0.75000000  0.00000000  2.500000e-03 
  0.15000000  0.80000000  0.00000000  2.500000e-03 
  0.15000000  0.85000000  0.00000000  2.500000e-03 
  0.15000000  0.90000000  0.00000000  2.500000e-03 
  0.15000000  0.95000000  0.00000000  2.500000e-03 
  0.20000000  0.00000000  0.00000000  2.500000e-03 
  0.20000000  0.05000000  0.00000000  2.500000e-03 
  0.20000000  0.10000000  0.00000000  2.500000e-03 
  0.20000000  0.15000000  0.00000000  2.500000e-03 
  0.20000000  0.20000000  0.00000000  2.500000e-03 
  0.20000000  0.25000000  0.00000000  2.500000e-03 
  0.20000000  0.30000000  0.00000000  2.500000e-03 
  0.20000000  0.35000000  0.00000000  2.500000e-03 
  0.20000000  0.40000000  0.00000000  2.500000e-03 
  0.20000000  0.45000000  0.00000000  2.500000e-03 
  0.20000000  0.50000000  0.00000000  2.500000e-03 
  0.20000000  0.55000000  0.00000000  2.500000e-03 
  0.20000000  0.60000000  0.00000000  2.500000e-03 
  0.20000000  0.65000000  0.00000000  2.500000e-03 
  0.20000000  0.70000000  0.00000000  2.500000e-03 
  0.20000000  0.75000000  0.00000000  2.500000e-03 
  0.20000000  0.80000000  0.00000000  2.500000e-03 
  0.20000000  0.85000000  0.00000000  2.500000e-03 
  0.20000000  0.90000000  0.00000000  2.500000e-03 
  0.20000000  0.95000000  0.00000000  2.500000e-03 
  0.25000000  0.00000000  0.00000000  2.500000e-03 
  0.25000000  0.05000000  0.00000000  2.500000e-03 
  0.25000000  0.10000000  0.00000000  2.500000e-03 
  0.25000000  0.15000000  0.00000000  2.500000e-03 
  0.25000000  0.20000000  0.00000000  2.500000e-03 
  0.25000000  0.25000000  0.00000000  2.500000e-03 
  0.25000000  0.30000000  0.00000000  2.500000e-03 
  0.25000000  0.35000000  0.00000000  2.500000e-03 
  0.25000000  0.40000000  0.00000000  2.500000e-03 
  0.25000000  0.45000000  0.00000000  2.500000e-03 
  0.25000000  0.50000000  0.00000000  2.500000e-03 
  0.25000000  0.55000000  0.00000000  2.500000e-03 
  0.25000000  0.60000000  0.00000000  2.500000e-03 
  0.25000000  0.65000000  0.00000000  2.500000e-03 
  0.25000000  0.70000000  0.00000000  2.500000e-03 
  0.25000000  0.75000000  0.00000000  2.500000e-03 
  0.25000000  0.80000000  0.00000000  2.500000e-03 
  0.25000000  0.85000000  0.00000000  2.500000e-03 
  0.25000000  0.90000000  0.00000000  2.500000e-03 
  0.25000000  0.95000000  0.00000000  2.500000e-03 
  0.30000000  0.00000000  0.00000000  2.500000e-03 
  0.30000000  0.05000000  0.00000000  2.500000e-03 
  0.30000000  0.10000000  0.00000000  2.500000e-03 
  0.30000000  0.15000000  0.00000000  2.500000e-03 
  0.30000000  0.20000000  0.00000000  2.500000e-03 
  0.30000000  0.25000000  0.00000000  2.500000e-03 
  0.30000000  0.30000000  0.00000000  2.500000e-03 
  0.30000000  0.35000000  0.00000000  2.500000e-03 
  0.30000000  0.40000000  0.00000000  2.500000e-03 
  0.30000000  0.45000000  0.00000000  2.500000e-03 
  0.30000000  0.50000000  0.00000000  2.500000e-03 
  0.30000000  0.55000000  0.00000000  2.500000e-03 
  0.30000000  0.60000000  0.00000000  2.500000e-03 
  0.30000000  0.65000000  0.00000000  2.500000e-03 
  0.30000000  0.70000000  0.00000000  2.500000e-03 
  0.30000000  0.75000000  0.00000000  2.500000e-03 
  0.30000000  0.80000000  0.00000000  2.500000e-03 
  0.30000000  0.85000000  0.00000000  2.500000e-03 
  0.30000000  0.90000000  0.00000000  2.500000e-03 
  0.30000000  0.95000000  0.00000000  2.500000e-03 
  0.35000000  0.00000000  0.00000000  2.500000e-03 
  0.35000000  0.05000000  0.00000000  2.500000e-03 
  0.35000000  0.10000000  0.00000000  2.500000e-03 
  0.35000000  0.15000000  0.00000000  2.500000e-03 
  0.35000000  0.20000000  0.00000000  2.500000e-03 
  0.35000000  0.25000000  0.00000000  2.500000e-03 
  0.35000000  0.30000000  0.00000000  2.500000e-03 
  0.35000000  0.35000000  0.00000000  2.500000e-03 
  0.35000000  0.40000000  0.00000000  2.500000e-03 
  0.35000000  0.45000000  0.00000000  2.500000e-03 
  0.35000000  0.50000000  0.00000000  2.500000e-03 
  0.35000000  0.55000000  0.00000000  2.500000e-03 
  0.35000000  0.60000000  0.00000000  2.500000e-03 
  0.35000000  0.65000000  0.00000000  2.500000e-03 
  0.35000000  0.70000000  0.00000000  2.500000e-03 
  0.35000000  0.75000000  0.00000000  2.500000e-03 
  0.35000000  0.80000000  0.00000000  2.500000e-03 
  0.35000000  0.85000000  0.00000000  2.500000e-03 
  0.35000000  0.90000000  0.00000000  2.500000e-03 
  0.35000000  0.95000000  0.00000000  2.500000e-03 
  0.40000000  0.00000000  0.00000000  2.500000e-03 
  0.40000000  0.05000000  0.00000000  2.500000e-03 
  0.40000000  0.10000000  0.00000000  2.500000e-03 
  0.40000000  0.15000000  0.00000000  2.500000e-03 
  0.40000000  0.20000000  0.00000000  2.500000e-03 
  0.40000000  0.25000000  0.00000000  2.500000e-03 
  0.40000000  0.30000000  0.00000000  2.500000e-03 
  0.40000000  0.35000000  0.00000000  2.500000e-03 
  0.40000000  0.40000000  0.00000000  2.500000e-03 
  0.40000000  0.45000000  0.00000000  2.500000e-03 
  0.40000000  0.50000000  0.00000000  2.500000e-03 
  0.40000000  0.55000000  0.00000000  2.500000e-03 
  0.40000000  0.60000000  0.00000000  2.500000e-03 
  0.40000000  0.65000000  0.00000000  2.500000e-03 
  0.40000000  0.70000000  0.00000000  2.500000e-03 
  0.40000000  0.75000000  0.00000000  2.500000e-03 
  0.40000000  0.80000000  0.00000000  2.500000e-03 
  0.40000000  0.85000000  0.00000000  2.500000e-03 
  0.40000000  0.90000000  0.00000000  2.500000e-03 
  0.40000000  0.95000000  0.00000000  2.500000e-03 
  0.45000000  0.00000000  0.00000000  2.500000e-03 
  0.45000000  0.05000000  0.00000000  2.500000e-03 
  0.45000000  0.10000000  0.00000000  2.500000e-03 
  0.45000000  0.15000000  0.00000000  2.500000e-03 
  0.45000000  0.20000000  0.00000000  2.500000e-03 
  0.45000000  0.25000000  0.00000000  2.500000e-03 
  0.45000000  0.30000000  0.00000000  2.500000e-03 
  0.45000000  0.35000000  0.00000000  2.500000e-03 
  0.45000000  0.40000000  0.00000000  2.500000e-03 
  0.45000000  0.45000000  0.00000000  2.500000e-03 
  0.45000000  0.50000000  0.00000000  2.500000e-03 
  0.45000000  0.55000000  0.00000000  2.500000e-03 
  0.45000000  0.60000000  0.00000000  2.500000e-03 
  0.45000000  0.65000000  0.00000000  2.500000e-03 
  0.45000000  0.70000000  0.00000000  2.500000e-03 
  0.45000000  0.75000000  0.00000000  2.500000e-03 
  0.45000000  0.80000000  0.00000000  2.500000e-03 
  0.45000000  0.85000000  0.00000000  2.500000e-03 
  0.45000000  0.90000000  0.00000000  2.500000e-03 
  0.45000000  0.95000000  0.00000000  2.500000e-03 
  0.50000000  0.00000000  0.00000000  2.500000e-03 
  0.50000000  0.05000000  0.00000000  2.500000e-03 
  0.50000000  0.10000000  0.00000000  2.500000e-03 
  0.50000000  0.15000000  0.00000000  2.500000e-03 
  0.50000000  0.20000000  0.00000000  2.500000e-03 
  0.50000000  0.25000000  0.00000000  2.500000e-03 
  0.50000000  0.30000000  0.00000000  2.500000e-03 
  0.50000000  0.35000000  0.00000000  2.500000e-03 
  0.50000000  0.40000000  0.00000000  2.500000e-03 
  0.50000000  0.45000000  0.00000000  2.500000e-03 
  0.50000000  0.50000000  0.00000000  2.500000e-03 
  0.50000000  0.55000000  0.00000000  2.500000e-03 
  0.50000000  0.60000000  0.00000000  2.500000e-03 
  0.50000000  0.65000000  0.00000000  2.500000e-03 
  0.50000000  0.70000000  0.00000000  2.500000e-03 
  0.50000000  0.75000000  0.00000000  2.500000e-03 
  0.50000000  0.80000000  0.00000000  2.500000e-03 
  0.50000000  0.85000000  0.00000000  2.500000e-03 
  0.50000000  0.90000000  0.00000000  2.500000e-03 
  0.50000000  0.95000000  0.00000000  2.500000e-03 
  0.55000000  0.00000000  0.00000000  2.500000e-03 
  0.55000000  0.05000000  0.00000000  2.500000e-03 
  0.55000000  0.10000000  0.00000000  2.500000e-03 
  0.55000000  0.15000000  0.00000000  2.500000e-03 
  0.55000000  0.20000000  0.00000000  2.500000e-03 
  0.55000000  0.25000000  0.00000000  2.500000e-03 
  0.55000000  0.30000000  0.00000000  2.500000e-03 
  0.55000000  0.35000000  0.00000000  2.500000e-03 
  0.55000000  0.40000000  0.00000000  2.500000e-03 
  0.55000000  0.45000000  0.00000000  2.500000e-03 
  0.55000000  0.50000000  0.00000000  2.500000e-03 
  0.55000000  0.55000000  0.00000000  2.500000e-03 
  0.55000000  0.60000000  0.00000000  2.500000e-03 
  0.55000000  0.65000000  0.00000000  2.500000e-03 
  0.55000000  0.70000000  0.00000000  2.500000e-03 
  0.55000000  0.75000000  0.00000000  2.500000e-03 
  0.55000000  0.80000000  0.00000000  2.500000e-03 
  0.55000000  0.85000000  0.00000000  2.500000e-03 
  0.55000000  0.90000000  0.00000000  2.500000e-03 
  0.55000000  0.95000000  0.00000000  2.500000e-03 
  0.60000000  0.00000000  0.00000000  2.500000e-03 
  0.60000000  0.05000000  0.00000000  2.500000e-03 
  0.60000000  0.10000000  0.00000000  2.500000e-03 
  0.60000000  0.15000000  0.00000000  2.500000e-03 
  0.60000000  0.20000000  0.00000000  2.500000e-03 
  0.60000000  0.25000000  0.00000000  2.500000e-03 
  0.60000000  0.30000000  0.00000000  2.500000e-03 
  0.60000000  0.35000000  0.00000000  2.500000e-03 
  0.60000000  0.40000000  0.00000000  2.500000e-03 
  0.60000000  0.45000000  0.00000000  2.500000e-03 
  0.60000000  0.50000000  0.00000000  2.500000e-03 
  0.60000000  0.55000000  0.00000000  2.500000e-03 
  0.60000000  0.60000000  0.00000000  2.500000e-03 
  0.60000000  0.65000000  0.00000000  2.500000e-03 
  0.60000000  0.70000000  0.00000000  2.500000e-03 
  0.60000000  0.75000000  0.00000000  2.500000e-03 
  0.60000000  0.80000000  0.00000000  2.500000e-03 
  0.60000000  0.85000000  0.00000000  2.500000e-03 
  0.60000000  0.90000000  0.00000000  2.500000e-03 
  0.60000000  0.95000000  0.00000000  2.500000e-03 
  0.65000000  0.00000000  0.00000000  2.500000e-03 
  0.65000000  0.05000000  0.00000000  2.500000e-03 
  0.65000000  0.10000000  0.00000000  2.500000e-03 
  0.65000000  0.15000000  0.00000000  2.500000e-03 
  0.65000000  0.20000000  0.00000000  2.500000e-03 
  0.65000000  0.25000000  0.00000000  2.500000e-03 
  0.65000000  0.30000000  0.00000000  2.500000e-03 
  0.65000000  0.35000000  0.00000000  2.500000e-03 
  0.65000000  0.40000000  0.00000000  2.500000e-03 
  0.65000000  0.45000000  0.00000000  2.500000e-03 
  0.65000000  0.50000000  0.00000000  2.500000e-03 
  0.65000000  0.55000000  0.00000000  2.500000e-03 
  0.65000000  0.60000000  0.00000000  2.500000e-03 
  0.65000000  0.65000000  0.00000000  2.500000e-03 
  0.65000000  0.70000000  0.00000000  2.500000e-03 
  0.65000000  0.75000000  0.00000000  2.500000e-03 
  0.65000000  0.80000000  0.00000000  2.500000e-03 
  0.65000000  0.85000000  0.00000000  2.500000e-03 
  0.65000000  0.90000000  0.00000000  2.500000e-03 
  0.65000000  0.95000000  0.00000000  2.500000e-03 
  0.70000000  0.00000000  0.00000000  2.500000e-03 
  0.70000000  0.05000000  0.00000000  2.500000e-03 
  0.70000000  0.10000000  0.00000000  2.500000e-03 
  0.70000000  0.15000000  0.00000000  2.500000e-03 
  0.70000000  0.20000000  0.00000000  2.500000e-03 
  0.70000000  0.25000000  0.00000000  2.500000e-03 
  0.70000000  0.30000000  0.00000000  2.500000e-03 
  0.70000000  0.35000000  0.00000000  2.500000e-03 
  0.70000000  0.40000000  0.00000000  2.500000e-03 
  0.70000000  0.45000000  0.00000000  2.500000e-03 
  0.70000000  0.50000000  0.00000000  2.500000e-03 
  0.70000000  0.55000000  0.00000000  2.500000e-03 
  0.70000000  0.60000000  0.00000000  2.500000e-03 
  0.70000000  0.65000000  0.00000000  2.500000e-03 
  0.70000000  0.70000000  0.00000000  2.500000e-03 
  0.70000000  0.75000000  0.00000000  2.500000e-03 
  0.70000000  0.80000000  0.00000000  2.500000e-03 
  0.70000000  0.85000000  0.00000000  2.500000e-03 
  0.70000000  0.90000000  0.00000000  2.500000e-03 
  0.70000000  0.95000000  0.00000000  2.500000e-03 
  0.75000000  0.00000000  0.00000000  2.500000e-03 
  0.75000000  0.05000000  0.00000000  2.500000e-03 
  0.75000000  0.10000000  0.00000000  2.500000e-03 
  0.75000000  0.15000000  0.00000000  2.500000e-03 
  0.75000000  0.20000000  0.00000000  2.500000e-03 
  0.75000000  0.25000000  0.00000000  2.500000e-03 
  0.75000000  0.30000000  0.00000000  2.500000e-03 
  0.75000000  0.35000000  0.00000000  2.500000e-03 
  0.75000000  0.40000000  0.00000000  2.500000e-03 
  0.75000000  0.45000000  0.00000000  2.500000e-03 
  0.75000000  0.50000000  0.00000000  2.500000e-03 
  0.75000000  0.55000000  0.00000000  2.500000e-03 
  0.75000000  0.60000000  0.00000000  2.500000e-03 
  0.75000000  0.65000000  0.00000000  2.500000e-03 
  0.75000000  0.70000000  0.00000000  2.500000e-03 
  0.75000000  0.75000000  0.00000000  2.500000e-03 
  0.75000000  0.80000000  0.00000000  2.500000e-03 
  0.75000000  0.85000000  0.00000000  2.500000e-03 
  0.75000000  0.90000000  0.00000000  2.500000e-03 
  0.75000000  0.95000000  0.00000000  2.500000e-03 
  0.80000000  0.00000000  0.00000000  2.500000e-03 
  0.80000000  0.05000000  0.00000000  2.500000e-03 
  0.80000000  0.10000000  0.00000000  2.500000e-03 
  0.80000000  0.15000000  0.00000000  2.500000e-03 
  0.80000000  0.20000000  0.00000000  2.500000e-03 
  0.80000000  0.25000000  0.00000000  2.500000e-03 
  0.80000000  0.30000000  0.00000000  2.500000e-03 
  0.80000000  0.35000000  0.00000000  2.500000e-03 
  0.80000000  0.40000000  0.00000000  2.500000e-03 
  0.80000000  0.45000000  0.00000000  2.500000e-03 
  0.80000000  0.50000000  0.00000000  2.500000e-03 
  0.80000000  0.55000000  0.00000000  2.500000e-03 
  0.80000000  0.60000000  0.00000000  2.500000e-03 
  0.80000000  0.65000000  0.00000000  2.500000e-03 
  0.80000000  0.70000000  0.00000000  2.500000e-03 
  0.80000000  0.75000000  0.00000000  2.500000e-03 
  0.80000000  0.80000000  0.00000000  2.500000e-03 
  0.80000000  0.85000000  0.00000000  2.500000e-03 
  0.80000000  0.90000000  0.00000000  2.500000e-03 
  0.80000000  0.95000000  0.00000000  2.500000e-03 
  0.85000000  0.00000000  0.00000000  2.500000e-03 
  0.85000000  0.05000000  0.00000000  2.500000e-03 
  0.85000000  0.10000000  0.00000000  2.500000e-03 
  0.85000000  0.15000000  0.00000000  2.500000e-03 
  0.85000000  0.20000000  0.00000000  2.500000e-03 
  0.85000000  0.25000000  0.00000000  2.500000e-03 
  0.85000000  0.30000000  0.00000000  2.500000e-03 
  0.85000000  0.35000000  0.00000000  2.500000e-03 
  0.85000000  0.40000000  0.00000000  2.500000e-03 
  0.85000000  0.45000000  0.00000000  2.500000e-03 
  0.85000000  0.50000000  0.00000000  2.500000e-03 
  0.85000000  0.55000000  0.00000000  2.500000e-03 
  0.85000000  0.60000000  0.00000000  2.500000e-03 
  0.85000000  0.65000000  0.00000000  2.500000e-03 
  0.85000000  0.70000000  0.00000000  2.500000e-03 
  0.85000000  0.75000000  0.00000000  2.500000e-03 
  0.85000000  0.80000000  0.00000000  2.500000e-03 
  0.85000000  0.85000000  0.00000000  2.500000e-03 
  0.85000000  0.90000000  0.00000000  2.500000e-03 
  0.85000000  0.95000000  0.00000000  2.500000e-03 
  0.90000000  0.00000000  0.00000000  2.500000e-03 
  0.90000000  0.05000000  0.00000000  2.500000e-03 
  0.90000000  0.10000000  0.00000000  2.500000e-03 
  0.90000000  0.15000000  0.00000000  2.500000e-03 
  0.90000000  0.20000000  0.00000000  2.500000e-03 
  0.90000000  0.25000000  0.00000000  2.500000e-03 
  0.90000000  0.30000000  0.00000000  2.500000e-03 
  0.90000000  0.35000000  0.00000000  2.500000e-03 
  0.90000000  0.40000000  0.00000000  2.500000e-03 
  0.90000000  0.45000000  0.00000000  2.500000e-03 
  0.90000000  0.50000000  0.00000000  2.500000e-03 
  0.90000000  0.55000000  0.00000000  2.500000e-03 
  0.90000000  0.60000000  0.00000000  2.500000e-03 
  0.90000000  0.65000000  0.00000000  2.500000e-03 
  0.90000000  0.70000000  0.00000000  2.500000e-03 
  0.90000000  0.75000000  0.00000000  2.500000e-03 
  0.90000000  0.80000000  0.00000000  2.500000e-03 
  0.90000000  0.85000000  0.00000000  2.500000e-03 
  0.90000000  0.90000000  0.00000000  2.500000e-03 
  0.90000000  0.95000000  0.00000000  2.500000e-03 
  0.95000000  0.00000000  0.00000000  2.500000e-03 
  0.95000000  0.05000000  0.00000000  2.500000e-03 
  0.95000000  0.10000000  0.00000000  2.500000e-03 
  0.95000000  0.15000000  0.00000000  2.500000e-03 
  0.95000000  0.20000000  0.00000000  2.500000e-03 
  0.95000000  0.25000000  0.00000000  2.500000e-03 
  0.95000000  0.30000000  0.00000000  2.500000e-03 
  0.95000000  0.35000000  0.00000000  2.500000e-03 
  0.95000000  0.40000000  0.00000000  2.500000e-03 
  0.95000000  0.45000000  0.00000000  2.500000e-03 
  0.95000000  0.50000000  0.00000000  2.500000e-03 
  0.95000000  0.55000000  0.00000000  2.500000e-03 
  0.95000000  0.60000000  0.00000000  2.500000e-03 
  0.95000000  0.65000000  0.00000000  2.500000e-03 
  0.95000000  0.70000000  0.00000000  2.500000e-03 
  0.95000000  0.75000000  0.00000000  2.500000e-03 
  0.95000000  0.80000000  0.00000000  2.500000e-03 
  0.95000000  0.85000000  0.00000000  2.500000e-03 
  0.95000000  0.90000000  0.00000000  2.500000e-03 
  0.95000000  0.95000000  0.00000000  2.500000e-03 
