&control
    calculation='scf'
    prefix='NbS2'
    outdir='./Output'
    pseudo_dir='./'
    tstress = .true.
    tprnfor = .true.
    etot_conv_thr = 1.0D-6
    forc_conv_thr = 1.0D-5
    verbosity = 'high'
    nstep = 200
/
&system
    ibrav = 0
    celldm(1) = 6.34
    celldm(3) = 6
    nat = 3, ntyp = 2,
    ecutwfc = 60.0
    ecutrho = 500.0
    occupations = 'smearing'
    degauss = 0.01
    smearing = 'mp'
    nbnd = 19
    input_dft = 'PBE'
/
&electrons
    conv_thr = 1.0d-8,
    mixing_beta = 0.7,
/

ATOMIC_SPECIES
 Nb 92.906 Nb_ONCV_PBE-1.2.upf
 S  32.065 S_ONCV_PBE-1.2.upf

CELL_PARAMETERS (alat)
   0.997627786  -0.000000000  -0.000000000
  -0.498813893   0.863971006   0.000000000
   0.000000000  -0.000000000   3.029330552

ATOMIC_POSITIONS (crystal)
S             0.3333333330        0.6666666660        0.6541077132
Nb            0.6666666660        0.3333333330        0.5000000000
S             0.3333333330        0.6666666660        0.3458922868

K_POINTS (automatic)
10 10 1 0 0 0
