&control
    calculation='nscf'
    prefix='NbS2'
    outdir='./Output'
    pseudo_dir='./'
    tstress = .true.
    tprnfor = .true.
    etot_conv_thr = 1.0D-6
    forc_conv_thr = 1.0D-5
    verbosity = 'high'
    nstep = 200
/
&system
    ibrav = 0
    celldm(1) = 6.34
    celldm(3) = 6
    nat = 3, ntyp = 2,
    ecutwfc = 60.0
    ecutrho = 500.0
    occupations = 'smearing'
    degauss = 0.01
    smearing = 'mp'
    nbnd = 19
    input_dft = 'PBE'
/
&electrons
    conv_thr = 1.0d-8,
    mixing_beta = 0.7,
/

ATOMIC_SPECIES
 Nb 92.906 Nb_ONCV_PBE-1.2.upf
 S  32.065 S_ONCV_PBE-1.2.upf

CELL_PARAMETERS (alat)
   0.997627786  -0.000000000  -0.000000000
  -0.498813893   0.863971006   0.000000000
   0.000000000  -0.000000000   3.029330552

ATOMIC_POSITIONS (crystal)
S             0.3333333330        0.6666666660        0.6541077132
Nb            0.6666666660        0.3333333330        0.5000000000
S             0.3333333330        0.6666666660        0.3458922868

K_POINTS crystal
900
  0.00000000  0.00000000  0.00000000  1.111111e-03 
  0.00000000  0.03333333  0.00000000  1.111111e-03 
  0.00000000  0.06666667  0.00000000  1.111111e-03 
  0.00000000  0.10000000  0.00000000  1.111111e-03 
  0.00000000  0.13333333  0.00000000  1.111111e-03 
  0.00000000  0.16666667  0.00000000  1.111111e-03 
  0.00000000  0.20000000  0.00000000  1.111111e-03 
  0.00000000  0.23333333  0.00000000  1.111111e-03 
  0.00000000  0.26666667  0.00000000  1.111111e-03 
  0.00000000  0.30000000  0.00000000  1.111111e-03 
  0.00000000  0.33333333  0.00000000  1.111111e-03 
  0.00000000  0.36666667  0.00000000  1.111111e-03 
  0.00000000  0.40000000  0.00000000  1.111111e-03 
  0.00000000  0.43333333  0.00000000  1.111111e-03 
  0.00000000  0.46666667  0.00000000  1.111111e-03 
  0.00000000  0.50000000  0.00000000  1.111111e-03 
  0.00000000  0.53333333  0.00000000  1.111111e-03 
  0.00000000  0.56666667  0.00000000  1.111111e-03 
  0.00000000  0.60000000  0.00000000  1.111111e-03 
  0.00000000  0.63333333  0.00000000  1.111111e-03 
  0.00000000  0.66666667  0.00000000  1.111111e-03 
  0.00000000  0.70000000  0.00000000  1.111111e-03 
  0.00000000  0.73333333  0.00000000  1.111111e-03 
  0.00000000  0.76666667  0.00000000  1.111111e-03 
  0.00000000  0.80000000  0.00000000  1.111111e-03 
  0.00000000  0.83333333  0.00000000  1.111111e-03 
  0.00000000  0.86666667  0.00000000  1.111111e-03 
  0.00000000  0.90000000  0.00000000  1.111111e-03 
  0.00000000  0.93333333  0.00000000  1.111111e-03 
  0.00000000  0.96666667  0.00000000  1.111111e-03 
  0.03333333  0.00000000  0.00000000  1.111111e-03 
  0.03333333  0.03333333  0.00000000  1.111111e-03 
  0.03333333  0.06666667  0.00000000  1.111111e-03 
  0.03333333  0.10000000  0.00000000  1.111111e-03 
  0.03333333  0.13333333  0.00000000  1.111111e-03 
  0.03333333  0.16666667  0.00000000  1.111111e-03 
  0.03333333  0.20000000  0.00000000  1.111111e-03 
  0.03333333  0.23333333  0.00000000  1.111111e-03 
  0.03333333  0.26666667  0.00000000  1.111111e-03 
  0.03333333  0.30000000  0.00000000  1.111111e-03 
  0.03333333  0.33333333  0.00000000  1.111111e-03 
  0.03333333  0.36666667  0.00000000  1.111111e-03 
  0.03333333  0.40000000  0.00000000  1.111111e-03 
  0.03333333  0.43333333  0.00000000  1.111111e-03 
  0.03333333  0.46666667  0.00000000  1.111111e-03 
  0.03333333  0.50000000  0.00000000  1.111111e-03 
  0.03333333  0.53333333  0.00000000  1.111111e-03 
  0.03333333  0.56666667  0.00000000  1.111111e-03 
  0.03333333  0.60000000  0.00000000  1.111111e-03 
  0.03333333  0.63333333  0.00000000  1.111111e-03 
  0.03333333  0.66666667  0.00000000  1.111111e-03 
  0.03333333  0.70000000  0.00000000  1.111111e-03 
  0.03333333  0.73333333  0.00000000  1.111111e-03 
  0.03333333  0.76666667  0.00000000  1.111111e-03 
  0.03333333  0.80000000  0.00000000  1.111111e-03 
  0.03333333  0.83333333  0.00000000  1.111111e-03 
  0.03333333  0.86666667  0.00000000  1.111111e-03 
  0.03333333  0.90000000  0.00000000  1.111111e-03 
  0.03333333  0.93333333  0.00000000  1.111111e-03 
  0.03333333  0.96666667  0.00000000  1.111111e-03 
  0.06666667  0.00000000  0.00000000  1.111111e-03 
  0.06666667  0.03333333  0.00000000  1.111111e-03 
  0.06666667  0.06666667  0.00000000  1.111111e-03 
  0.06666667  0.10000000  0.00000000  1.111111e-03 
  0.06666667  0.13333333  0.00000000  1.111111e-03 
  0.06666667  0.16666667  0.00000000  1.111111e-03 
  0.06666667  0.20000000  0.00000000  1.111111e-03 
  0.06666667  0.23333333  0.00000000  1.111111e-03 
  0.06666667  0.26666667  0.00000000  1.111111e-03 
  0.06666667  0.30000000  0.00000000  1.111111e-03 
  0.06666667  0.33333333  0.00000000  1.111111e-03 
  0.06666667  0.36666667  0.00000000  1.111111e-03 
  0.06666667  0.40000000  0.00000000  1.111111e-03 
  0.06666667  0.43333333  0.00000000  1.111111e-03 
  0.06666667  0.46666667  0.00000000  1.111111e-03 
  0.06666667  0.50000000  0.00000000  1.111111e-03 
  0.06666667  0.53333333  0.00000000  1.111111e-03 
  0.06666667  0.56666667  0.00000000  1.111111e-03 
  0.06666667  0.60000000  0.00000000  1.111111e-03 
  0.06666667  0.63333333  0.00000000  1.111111e-03 
  0.06666667  0.66666667  0.00000000  1.111111e-03 
  0.06666667  0.70000000  0.00000000  1.111111e-03 
  0.06666667  0.73333333  0.00000000  1.111111e-03 
  0.06666667  0.76666667  0.00000000  1.111111e-03 
  0.06666667  0.80000000  0.00000000  1.111111e-03 
  0.06666667  0.83333333  0.00000000  1.111111e-03 
  0.06666667  0.86666667  0.00000000  1.111111e-03 
  0.06666667  0.90000000  0.00000000  1.111111e-03 
  0.06666667  0.93333333  0.00000000  1.111111e-03 
  0.06666667  0.96666667  0.00000000  1.111111e-03 
  0.10000000  0.00000000  0.00000000  1.111111e-03 
  0.10000000  0.03333333  0.00000000  1.111111e-03 
  0.10000000  0.06666667  0.00000000  1.111111e-03 
  0.10000000  0.10000000  0.00000000  1.111111e-03 
  0.10000000  0.13333333  0.00000000  1.111111e-03 
  0.10000000  0.16666667  0.00000000  1.111111e-03 
  0.10000000  0.20000000  0.00000000  1.111111e-03 
  0.10000000  0.23333333  0.00000000  1.111111e-03 
  0.10000000  0.26666667  0.00000000  1.111111e-03 
  0.10000000  0.30000000  0.00000000  1.111111e-03 
  0.10000000  0.33333333  0.00000000  1.111111e-03 
  0.10000000  0.36666667  0.00000000  1.111111e-03 
  0.10000000  0.40000000  0.00000000  1.111111e-03 
  0.10000000  0.43333333  0.00000000  1.111111e-03 
  0.10000000  0.46666667  0.00000000  1.111111e-03 
  0.10000000  0.50000000  0.00000000  1.111111e-03 
  0.10000000  0.53333333  0.00000000  1.111111e-03 
  0.10000000  0.56666667  0.00000000  1.111111e-03 
  0.10000000  0.60000000  0.00000000  1.111111e-03 
  0.10000000  0.63333333  0.00000000  1.111111e-03 
  0.10000000  0.66666667  0.00000000  1.111111e-03 
  0.10000000  0.70000000  0.00000000  1.111111e-03 
  0.10000000  0.73333333  0.00000000  1.111111e-03 
  0.10000000  0.76666667  0.00000000  1.111111e-03 
  0.10000000  0.80000000  0.00000000  1.111111e-03 
  0.10000000  0.83333333  0.00000000  1.111111e-03 
  0.10000000  0.86666667  0.00000000  1.111111e-03 
  0.10000000  0.90000000  0.00000000  1.111111e-03 
  0.10000000  0.93333333  0.00000000  1.111111e-03 
  0.10000000  0.96666667  0.00000000  1.111111e-03 
  0.13333333  0.00000000  0.00000000  1.111111e-03 
  0.13333333  0.03333333  0.00000000  1.111111e-03 
  0.13333333  0.06666667  0.00000000  1.111111e-03 
  0.13333333  0.10000000  0.00000000  1.111111e-03 
  0.13333333  0.13333333  0.00000000  1.111111e-03 
  0.13333333  0.16666667  0.00000000  1.111111e-03 
  0.13333333  0.20000000  0.00000000  1.111111e-03 
  0.13333333  0.23333333  0.00000000  1.111111e-03 
  0.13333333  0.26666667  0.00000000  1.111111e-03 
  0.13333333  0.30000000  0.00000000  1.111111e-03 
  0.13333333  0.33333333  0.00000000  1.111111e-03 
  0.13333333  0.36666667  0.00000000  1.111111e-03 
  0.13333333  0.40000000  0.00000000  1.111111e-03 
  0.13333333  0.43333333  0.00000000  1.111111e-03 
  0.13333333  0.46666667  0.00000000  1.111111e-03 
  0.13333333  0.50000000  0.00000000  1.111111e-03 
  0.13333333  0.53333333  0.00000000  1.111111e-03 
  0.13333333  0.56666667  0.00000000  1.111111e-03 
  0.13333333  0.60000000  0.00000000  1.111111e-03 
  0.13333333  0.63333333  0.00000000  1.111111e-03 
  0.13333333  0.66666667  0.00000000  1.111111e-03 
  0.13333333  0.70000000  0.00000000  1.111111e-03 
  0.13333333  0.73333333  0.00000000  1.111111e-03 
  0.13333333  0.76666667  0.00000000  1.111111e-03 
  0.13333333  0.80000000  0.00000000  1.111111e-03 
  0.13333333  0.83333333  0.00000000  1.111111e-03 
  0.13333333  0.86666667  0.00000000  1.111111e-03 
  0.13333333  0.90000000  0.00000000  1.111111e-03 
  0.13333333  0.93333333  0.00000000  1.111111e-03 
  0.13333333  0.96666667  0.00000000  1.111111e-03 
  0.16666667  0.00000000  0.00000000  1.111111e-03 
  0.16666667  0.03333333  0.00000000  1.111111e-03 
  0.16666667  0.06666667  0.00000000  1.111111e-03 
  0.16666667  0.10000000  0.00000000  1.111111e-03 
  0.16666667  0.13333333  0.00000000  1.111111e-03 
  0.16666667  0.16666667  0.00000000  1.111111e-03 
  0.16666667  0.20000000  0.00000000  1.111111e-03 
  0.16666667  0.23333333  0.00000000  1.111111e-03 
  0.16666667  0.26666667  0.00000000  1.111111e-03 
  0.16666667  0.30000000  0.00000000  1.111111e-03 
  0.16666667  0.33333333  0.00000000  1.111111e-03 
  0.16666667  0.36666667  0.00000000  1.111111e-03 
  0.16666667  0.40000000  0.00000000  1.111111e-03 
  0.16666667  0.43333333  0.00000000  1.111111e-03 
  0.16666667  0.46666667  0.00000000  1.111111e-03 
  0.16666667  0.50000000  0.00000000  1.111111e-03 
  0.16666667  0.53333333  0.00000000  1.111111e-03 
  0.16666667  0.56666667  0.00000000  1.111111e-03 
  0.16666667  0.60000000  0.00000000  1.111111e-03 
  0.16666667  0.63333333  0.00000000  1.111111e-03 
  0.16666667  0.66666667  0.00000000  1.111111e-03 
  0.16666667  0.70000000  0.00000000  1.111111e-03 
  0.16666667  0.73333333  0.00000000  1.111111e-03 
  0.16666667  0.76666667  0.00000000  1.111111e-03 
  0.16666667  0.80000000  0.00000000  1.111111e-03 
  0.16666667  0.83333333  0.00000000  1.111111e-03 
  0.16666667  0.86666667  0.00000000  1.111111e-03 
  0.16666667  0.90000000  0.00000000  1.111111e-03 
  0.16666667  0.93333333  0.00000000  1.111111e-03 
  0.16666667  0.96666667  0.00000000  1.111111e-03 
  0.20000000  0.00000000  0.00000000  1.111111e-03 
  0.20000000  0.03333333  0.00000000  1.111111e-03 
  0.20000000  0.06666667  0.00000000  1.111111e-03 
  0.20000000  0.10000000  0.00000000  1.111111e-03 
  0.20000000  0.13333333  0.00000000  1.111111e-03 
  0.20000000  0.16666667  0.00000000  1.111111e-03 
  0.20000000  0.20000000  0.00000000  1.111111e-03 
  0.20000000  0.23333333  0.00000000  1.111111e-03 
  0.20000000  0.26666667  0.00000000  1.111111e-03 
  0.20000000  0.30000000  0.00000000  1.111111e-03 
  0.20000000  0.33333333  0.00000000  1.111111e-03 
  0.20000000  0.36666667  0.00000000  1.111111e-03 
  0.20000000  0.40000000  0.00000000  1.111111e-03 
  0.20000000  0.43333333  0.00000000  1.111111e-03 
  0.20000000  0.46666667  0.00000000  1.111111e-03 
  0.20000000  0.50000000  0.00000000  1.111111e-03 
  0.20000000  0.53333333  0.00000000  1.111111e-03 
  0.20000000  0.56666667  0.00000000  1.111111e-03 
  0.20000000  0.60000000  0.00000000  1.111111e-03 
  0.20000000  0.63333333  0.00000000  1.111111e-03 
  0.20000000  0.66666667  0.00000000  1.111111e-03 
  0.20000000  0.70000000  0.00000000  1.111111e-03 
  0.20000000  0.73333333  0.00000000  1.111111e-03 
  0.20000000  0.76666667  0.00000000  1.111111e-03 
  0.20000000  0.80000000  0.00000000  1.111111e-03 
  0.20000000  0.83333333  0.00000000  1.111111e-03 
  0.20000000  0.86666667  0.00000000  1.111111e-03 
  0.20000000  0.90000000  0.00000000  1.111111e-03 
  0.20000000  0.93333333  0.00000000  1.111111e-03 
  0.20000000  0.96666667  0.00000000  1.111111e-03 
  0.23333333  0.00000000  0.00000000  1.111111e-03 
  0.23333333  0.03333333  0.00000000  1.111111e-03 
  0.23333333  0.06666667  0.00000000  1.111111e-03 
  0.23333333  0.10000000  0.00000000  1.111111e-03 
  0.23333333  0.13333333  0.00000000  1.111111e-03 
  0.23333333  0.16666667  0.00000000  1.111111e-03 
  0.23333333  0.20000000  0.00000000  1.111111e-03 
  0.23333333  0.23333333  0.00000000  1.111111e-03 
  0.23333333  0.26666667  0.00000000  1.111111e-03 
  0.23333333  0.30000000  0.00000000  1.111111e-03 
  0.23333333  0.33333333  0.00000000  1.111111e-03 
  0.23333333  0.36666667  0.00000000  1.111111e-03 
  0.23333333  0.40000000  0.00000000  1.111111e-03 
  0.23333333  0.43333333  0.00000000  1.111111e-03 
  0.23333333  0.46666667  0.00000000  1.111111e-03 
  0.23333333  0.50000000  0.00000000  1.111111e-03 
  0.23333333  0.53333333  0.00000000  1.111111e-03 
  0.23333333  0.56666667  0.00000000  1.111111e-03 
  0.23333333  0.60000000  0.00000000  1.111111e-03 
  0.23333333  0.63333333  0.00000000  1.111111e-03 
  0.23333333  0.66666667  0.00000000  1.111111e-03 
  0.23333333  0.70000000  0.00000000  1.111111e-03 
  0.23333333  0.73333333  0.00000000  1.111111e-03 
  0.23333333  0.76666667  0.00000000  1.111111e-03 
  0.23333333  0.80000000  0.00000000  1.111111e-03 
  0.23333333  0.83333333  0.00000000  1.111111e-03 
  0.23333333  0.86666667  0.00000000  1.111111e-03 
  0.23333333  0.90000000  0.00000000  1.111111e-03 
  0.23333333  0.93333333  0.00000000  1.111111e-03 
  0.23333333  0.96666667  0.00000000  1.111111e-03 
  0.26666667  0.00000000  0.00000000  1.111111e-03 
  0.26666667  0.03333333  0.00000000  1.111111e-03 
  0.26666667  0.06666667  0.00000000  1.111111e-03 
  0.26666667  0.10000000  0.00000000  1.111111e-03 
  0.26666667  0.13333333  0.00000000  1.111111e-03 
  0.26666667  0.16666667  0.00000000  1.111111e-03 
  0.26666667  0.20000000  0.00000000  1.111111e-03 
  0.26666667  0.23333333  0.00000000  1.111111e-03 
  0.26666667  0.26666667  0.00000000  1.111111e-03 
  0.26666667  0.30000000  0.00000000  1.111111e-03 
  0.26666667  0.33333333  0.00000000  1.111111e-03 
  0.26666667  0.36666667  0.00000000  1.111111e-03 
  0.26666667  0.40000000  0.00000000  1.111111e-03 
  0.26666667  0.43333333  0.00000000  1.111111e-03 
  0.26666667  0.46666667  0.00000000  1.111111e-03 
  0.26666667  0.50000000  0.00000000  1.111111e-03 
  0.26666667  0.53333333  0.00000000  1.111111e-03 
  0.26666667  0.56666667  0.00000000  1.111111e-03 
  0.26666667  0.60000000  0.00000000  1.111111e-03 
  0.26666667  0.63333333  0.00000000  1.111111e-03 
  0.26666667  0.66666667  0.00000000  1.111111e-03 
  0.26666667  0.70000000  0.00000000  1.111111e-03 
  0.26666667  0.73333333  0.00000000  1.111111e-03 
  0.26666667  0.76666667  0.00000000  1.111111e-03 
  0.26666667  0.80000000  0.00000000  1.111111e-03 
  0.26666667  0.83333333  0.00000000  1.111111e-03 
  0.26666667  0.86666667  0.00000000  1.111111e-03 
  0.26666667  0.90000000  0.00000000  1.111111e-03 
  0.26666667  0.93333333  0.00000000  1.111111e-03 
  0.26666667  0.96666667  0.00000000  1.111111e-03 
  0.30000000  0.00000000  0.00000000  1.111111e-03 
  0.30000000  0.03333333  0.00000000  1.111111e-03 
  0.30000000  0.06666667  0.00000000  1.111111e-03 
  0.30000000  0.10000000  0.00000000  1.111111e-03 
  0.30000000  0.13333333  0.00000000  1.111111e-03 
  0.30000000  0.16666667  0.00000000  1.111111e-03 
  0.30000000  0.20000000  0.00000000  1.111111e-03 
  0.30000000  0.23333333  0.00000000  1.111111e-03 
  0.30000000  0.26666667  0.00000000  1.111111e-03 
  0.30000000  0.30000000  0.00000000  1.111111e-03 
  0.30000000  0.33333333  0.00000000  1.111111e-03 
  0.30000000  0.36666667  0.00000000  1.111111e-03 
  0.30000000  0.40000000  0.00000000  1.111111e-03 
  0.30000000  0.43333333  0.00000000  1.111111e-03 
  0.30000000  0.46666667  0.00000000  1.111111e-03 
  0.30000000  0.50000000  0.00000000  1.111111e-03 
  0.30000000  0.53333333  0.00000000  1.111111e-03 
  0.30000000  0.56666667  0.00000000  1.111111e-03 
  0.30000000  0.60000000  0.00000000  1.111111e-03 
  0.30000000  0.63333333  0.00000000  1.111111e-03 
  0.30000000  0.66666667  0.00000000  1.111111e-03 
  0.30000000  0.70000000  0.00000000  1.111111e-03 
  0.30000000  0.73333333  0.00000000  1.111111e-03 
  0.30000000  0.76666667  0.00000000  1.111111e-03 
  0.30000000  0.80000000  0.00000000  1.111111e-03 
  0.30000000  0.83333333  0.00000000  1.111111e-03 
  0.30000000  0.86666667  0.00000000  1.111111e-03 
  0.30000000  0.90000000  0.00000000  1.111111e-03 
  0.30000000  0.93333333  0.00000000  1.111111e-03 
  0.30000000  0.96666667  0.00000000  1.111111e-03 
  0.33333333  0.00000000  0.00000000  1.111111e-03 
  0.33333333  0.03333333  0.00000000  1.111111e-03 
  0.33333333  0.06666667  0.00000000  1.111111e-03 
  0.33333333  0.10000000  0.00000000  1.111111e-03 
  0.33333333  0.13333333  0.00000000  1.111111e-03 
  0.33333333  0.16666667  0.00000000  1.111111e-03 
  0.33333333  0.20000000  0.00000000  1.111111e-03 
  0.33333333  0.23333333  0.00000000  1.111111e-03 
  0.33333333  0.26666667  0.00000000  1.111111e-03 
  0.33333333  0.30000000  0.00000000  1.111111e-03 
  0.33333333  0.33333333  0.00000000  1.111111e-03 
  0.33333333  0.36666667  0.00000000  1.111111e-03 
  0.33333333  0.40000000  0.00000000  1.111111e-03 
  0.33333333  0.43333333  0.00000000  1.111111e-03 
  0.33333333  0.46666667  0.00000000  1.111111e-03 
  0.33333333  0.50000000  0.00000000  1.111111e-03 
  0.33333333  0.53333333  0.00000000  1.111111e-03 
  0.33333333  0.56666667  0.00000000  1.111111e-03 
  0.33333333  0.60000000  0.00000000  1.111111e-03 
  0.33333333  0.63333333  0.00000000  1.111111e-03 
  0.33333333  0.66666667  0.00000000  1.111111e-03 
  0.33333333  0.70000000  0.00000000  1.111111e-03 
  0.33333333  0.73333333  0.00000000  1.111111e-03 
  0.33333333  0.76666667  0.00000000  1.111111e-03 
  0.33333333  0.80000000  0.00000000  1.111111e-03 
  0.33333333  0.83333333  0.00000000  1.111111e-03 
  0.33333333  0.86666667  0.00000000  1.111111e-03 
  0.33333333  0.90000000  0.00000000  1.111111e-03 
  0.33333333  0.93333333  0.00000000  1.111111e-03 
  0.33333333  0.96666667  0.00000000  1.111111e-03 
  0.36666667  0.00000000  0.00000000  1.111111e-03 
  0.36666667  0.03333333  0.00000000  1.111111e-03 
  0.36666667  0.06666667  0.00000000  1.111111e-03 
  0.36666667  0.10000000  0.00000000  1.111111e-03 
  0.36666667  0.13333333  0.00000000  1.111111e-03 
  0.36666667  0.16666667  0.00000000  1.111111e-03 
  0.36666667  0.20000000  0.00000000  1.111111e-03 
  0.36666667  0.23333333  0.00000000  1.111111e-03 
  0.36666667  0.26666667  0.00000000  1.111111e-03 
  0.36666667  0.30000000  0.00000000  1.111111e-03 
  0.36666667  0.33333333  0.00000000  1.111111e-03 
  0.36666667  0.36666667  0.00000000  1.111111e-03 
  0.36666667  0.40000000  0.00000000  1.111111e-03 
  0.36666667  0.43333333  0.00000000  1.111111e-03 
  0.36666667  0.46666667  0.00000000  1.111111e-03 
  0.36666667  0.50000000  0.00000000  1.111111e-03 
  0.36666667  0.53333333  0.00000000  1.111111e-03 
  0.36666667  0.56666667  0.00000000  1.111111e-03 
  0.36666667  0.60000000  0.00000000  1.111111e-03 
  0.36666667  0.63333333  0.00000000  1.111111e-03 
  0.36666667  0.66666667  0.00000000  1.111111e-03 
  0.36666667  0.70000000  0.00000000  1.111111e-03 
  0.36666667  0.73333333  0.00000000  1.111111e-03 
  0.36666667  0.76666667  0.00000000  1.111111e-03 
  0.36666667  0.80000000  0.00000000  1.111111e-03 
  0.36666667  0.83333333  0.00000000  1.111111e-03 
  0.36666667  0.86666667  0.00000000  1.111111e-03 
  0.36666667  0.90000000  0.00000000  1.111111e-03 
  0.36666667  0.93333333  0.00000000  1.111111e-03 
  0.36666667  0.96666667  0.00000000  1.111111e-03 
  0.40000000  0.00000000  0.00000000  1.111111e-03 
  0.40000000  0.03333333  0.00000000  1.111111e-03 
  0.40000000  0.06666667  0.00000000  1.111111e-03 
  0.40000000  0.10000000  0.00000000  1.111111e-03 
  0.40000000  0.13333333  0.00000000  1.111111e-03 
  0.40000000  0.16666667  0.00000000  1.111111e-03 
  0.40000000  0.20000000  0.00000000  1.111111e-03 
  0.40000000  0.23333333  0.00000000  1.111111e-03 
  0.40000000  0.26666667  0.00000000  1.111111e-03 
  0.40000000  0.30000000  0.00000000  1.111111e-03 
  0.40000000  0.33333333  0.00000000  1.111111e-03 
  0.40000000  0.36666667  0.00000000  1.111111e-03 
  0.40000000  0.40000000  0.00000000  1.111111e-03 
  0.40000000  0.43333333  0.00000000  1.111111e-03 
  0.40000000  0.46666667  0.00000000  1.111111e-03 
  0.40000000  0.50000000  0.00000000  1.111111e-03 
  0.40000000  0.53333333  0.00000000  1.111111e-03 
  0.40000000  0.56666667  0.00000000  1.111111e-03 
  0.40000000  0.60000000  0.00000000  1.111111e-03 
  0.40000000  0.63333333  0.00000000  1.111111e-03 
  0.40000000  0.66666667  0.00000000  1.111111e-03 
  0.40000000  0.70000000  0.00000000  1.111111e-03 
  0.40000000  0.73333333  0.00000000  1.111111e-03 
  0.40000000  0.76666667  0.00000000  1.111111e-03 
  0.40000000  0.80000000  0.00000000  1.111111e-03 
  0.40000000  0.83333333  0.00000000  1.111111e-03 
  0.40000000  0.86666667  0.00000000  1.111111e-03 
  0.40000000  0.90000000  0.00000000  1.111111e-03 
  0.40000000  0.93333333  0.00000000  1.111111e-03 
  0.40000000  0.96666667  0.00000000  1.111111e-03 
  0.43333333  0.00000000  0.00000000  1.111111e-03 
  0.43333333  0.03333333  0.00000000  1.111111e-03 
  0.43333333  0.06666667  0.00000000  1.111111e-03 
  0.43333333  0.10000000  0.00000000  1.111111e-03 
  0.43333333  0.13333333  0.00000000  1.111111e-03 
  0.43333333  0.16666667  0.00000000  1.111111e-03 
  0.43333333  0.20000000  0.00000000  1.111111e-03 
  0.43333333  0.23333333  0.00000000  1.111111e-03 
  0.43333333  0.26666667  0.00000000  1.111111e-03 
  0.43333333  0.30000000  0.00000000  1.111111e-03 
  0.43333333  0.33333333  0.00000000  1.111111e-03 
  0.43333333  0.36666667  0.00000000  1.111111e-03 
  0.43333333  0.40000000  0.00000000  1.111111e-03 
  0.43333333  0.43333333  0.00000000  1.111111e-03 
  0.43333333  0.46666667  0.00000000  1.111111e-03 
  0.43333333  0.50000000  0.00000000  1.111111e-03 
  0.43333333  0.53333333  0.00000000  1.111111e-03 
  0.43333333  0.56666667  0.00000000  1.111111e-03 
  0.43333333  0.60000000  0.00000000  1.111111e-03 
  0.43333333  0.63333333  0.00000000  1.111111e-03 
  0.43333333  0.66666667  0.00000000  1.111111e-03 
  0.43333333  0.70000000  0.00000000  1.111111e-03 
  0.43333333  0.73333333  0.00000000  1.111111e-03 
  0.43333333  0.76666667  0.00000000  1.111111e-03 
  0.43333333  0.80000000  0.00000000  1.111111e-03 
  0.43333333  0.83333333  0.00000000  1.111111e-03 
  0.43333333  0.86666667  0.00000000  1.111111e-03 
  0.43333333  0.90000000  0.00000000  1.111111e-03 
  0.43333333  0.93333333  0.00000000  1.111111e-03 
  0.43333333  0.96666667  0.00000000  1.111111e-03 
  0.46666667  0.00000000  0.00000000  1.111111e-03 
  0.46666667  0.03333333  0.00000000  1.111111e-03 
  0.46666667  0.06666667  0.00000000  1.111111e-03 
  0.46666667  0.10000000  0.00000000  1.111111e-03 
  0.46666667  0.13333333  0.00000000  1.111111e-03 
  0.46666667  0.16666667  0.00000000  1.111111e-03 
  0.46666667  0.20000000  0.00000000  1.111111e-03 
  0.46666667  0.23333333  0.00000000  1.111111e-03 
  0.46666667  0.26666667  0.00000000  1.111111e-03 
  0.46666667  0.30000000  0.00000000  1.111111e-03 
  0.46666667  0.33333333  0.00000000  1.111111e-03 
  0.46666667  0.36666667  0.00000000  1.111111e-03 
  0.46666667  0.40000000  0.00000000  1.111111e-03 
  0.46666667  0.43333333  0.00000000  1.111111e-03 
  0.46666667  0.46666667  0.00000000  1.111111e-03 
  0.46666667  0.50000000  0.00000000  1.111111e-03 
  0.46666667  0.53333333  0.00000000  1.111111e-03 
  0.46666667  0.56666667  0.00000000  1.111111e-03 
  0.46666667  0.60000000  0.00000000  1.111111e-03 
  0.46666667  0.63333333  0.00000000  1.111111e-03 
  0.46666667  0.66666667  0.00000000  1.111111e-03 
  0.46666667  0.70000000  0.00000000  1.111111e-03 
  0.46666667  0.73333333  0.00000000  1.111111e-03 
  0.46666667  0.76666667  0.00000000  1.111111e-03 
  0.46666667  0.80000000  0.00000000  1.111111e-03 
  0.46666667  0.83333333  0.00000000  1.111111e-03 
  0.46666667  0.86666667  0.00000000  1.111111e-03 
  0.46666667  0.90000000  0.00000000  1.111111e-03 
  0.46666667  0.93333333  0.00000000  1.111111e-03 
  0.46666667  0.96666667  0.00000000  1.111111e-03 
  0.50000000  0.00000000  0.00000000  1.111111e-03 
  0.50000000  0.03333333  0.00000000  1.111111e-03 
  0.50000000  0.06666667  0.00000000  1.111111e-03 
  0.50000000  0.10000000  0.00000000  1.111111e-03 
  0.50000000  0.13333333  0.00000000  1.111111e-03 
  0.50000000  0.16666667  0.00000000  1.111111e-03 
  0.50000000  0.20000000  0.00000000  1.111111e-03 
  0.50000000  0.23333333  0.00000000  1.111111e-03 
  0.50000000  0.26666667  0.00000000  1.111111e-03 
  0.50000000  0.30000000  0.00000000  1.111111e-03 
  0.50000000  0.33333333  0.00000000  1.111111e-03 
  0.50000000  0.36666667  0.00000000  1.111111e-03 
  0.50000000  0.40000000  0.00000000  1.111111e-03 
  0.50000000  0.43333333  0.00000000  1.111111e-03 
  0.50000000  0.46666667  0.00000000  1.111111e-03 
  0.50000000  0.50000000  0.00000000  1.111111e-03 
  0.50000000  0.53333333  0.00000000  1.111111e-03 
  0.50000000  0.56666667  0.00000000  1.111111e-03 
  0.50000000  0.60000000  0.00000000  1.111111e-03 
  0.50000000  0.63333333  0.00000000  1.111111e-03 
  0.50000000  0.66666667  0.00000000  1.111111e-03 
  0.50000000  0.70000000  0.00000000  1.111111e-03 
  0.50000000  0.73333333  0.00000000  1.111111e-03 
  0.50000000  0.76666667  0.00000000  1.111111e-03 
  0.50000000  0.80000000  0.00000000  1.111111e-03 
  0.50000000  0.83333333  0.00000000  1.111111e-03 
  0.50000000  0.86666667  0.00000000  1.111111e-03 
  0.50000000  0.90000000  0.00000000  1.111111e-03 
  0.50000000  0.93333333  0.00000000  1.111111e-03 
  0.50000000  0.96666667  0.00000000  1.111111e-03 
  0.53333333  0.00000000  0.00000000  1.111111e-03 
  0.53333333  0.03333333  0.00000000  1.111111e-03 
  0.53333333  0.06666667  0.00000000  1.111111e-03 
  0.53333333  0.10000000  0.00000000  1.111111e-03 
  0.53333333  0.13333333  0.00000000  1.111111e-03 
  0.53333333  0.16666667  0.00000000  1.111111e-03 
  0.53333333  0.20000000  0.00000000  1.111111e-03 
  0.53333333  0.23333333  0.00000000  1.111111e-03 
  0.53333333  0.26666667  0.00000000  1.111111e-03 
  0.53333333  0.30000000  0.00000000  1.111111e-03 
  0.53333333  0.33333333  0.00000000  1.111111e-03 
  0.53333333  0.36666667  0.00000000  1.111111e-03 
  0.53333333  0.40000000  0.00000000  1.111111e-03 
  0.53333333  0.43333333  0.00000000  1.111111e-03 
  0.53333333  0.46666667  0.00000000  1.111111e-03 
  0.53333333  0.50000000  0.00000000  1.111111e-03 
  0.53333333  0.53333333  0.00000000  1.111111e-03 
  0.53333333  0.56666667  0.00000000  1.111111e-03 
  0.53333333  0.60000000  0.00000000  1.111111e-03 
  0.53333333  0.63333333  0.00000000  1.111111e-03 
  0.53333333  0.66666667  0.00000000  1.111111e-03 
  0.53333333  0.70000000  0.00000000  1.111111e-03 
  0.53333333  0.73333333  0.00000000  1.111111e-03 
  0.53333333  0.76666667  0.00000000  1.111111e-03 
  0.53333333  0.80000000  0.00000000  1.111111e-03 
  0.53333333  0.83333333  0.00000000  1.111111e-03 
  0.53333333  0.86666667  0.00000000  1.111111e-03 
  0.53333333  0.90000000  0.00000000  1.111111e-03 
  0.53333333  0.93333333  0.00000000  1.111111e-03 
  0.53333333  0.96666667  0.00000000  1.111111e-03 
  0.56666667  0.00000000  0.00000000  1.111111e-03 
  0.56666667  0.03333333  0.00000000  1.111111e-03 
  0.56666667  0.06666667  0.00000000  1.111111e-03 
  0.56666667  0.10000000  0.00000000  1.111111e-03 
  0.56666667  0.13333333  0.00000000  1.111111e-03 
  0.56666667  0.16666667  0.00000000  1.111111e-03 
  0.56666667  0.20000000  0.00000000  1.111111e-03 
  0.56666667  0.23333333  0.00000000  1.111111e-03 
  0.56666667  0.26666667  0.00000000  1.111111e-03 
  0.56666667  0.30000000  0.00000000  1.111111e-03 
  0.56666667  0.33333333  0.00000000  1.111111e-03 
  0.56666667  0.36666667  0.00000000  1.111111e-03 
  0.56666667  0.40000000  0.00000000  1.111111e-03 
  0.56666667  0.43333333  0.00000000  1.111111e-03 
  0.56666667  0.46666667  0.00000000  1.111111e-03 
  0.56666667  0.50000000  0.00000000  1.111111e-03 
  0.56666667  0.53333333  0.00000000  1.111111e-03 
  0.56666667  0.56666667  0.00000000  1.111111e-03 
  0.56666667  0.60000000  0.00000000  1.111111e-03 
  0.56666667  0.63333333  0.00000000  1.111111e-03 
  0.56666667  0.66666667  0.00000000  1.111111e-03 
  0.56666667  0.70000000  0.00000000  1.111111e-03 
  0.56666667  0.73333333  0.00000000  1.111111e-03 
  0.56666667  0.76666667  0.00000000  1.111111e-03 
  0.56666667  0.80000000  0.00000000  1.111111e-03 
  0.56666667  0.83333333  0.00000000  1.111111e-03 
  0.56666667  0.86666667  0.00000000  1.111111e-03 
  0.56666667  0.90000000  0.00000000  1.111111e-03 
  0.56666667  0.93333333  0.00000000  1.111111e-03 
  0.56666667  0.96666667  0.00000000  1.111111e-03 
  0.60000000  0.00000000  0.00000000  1.111111e-03 
  0.60000000  0.03333333  0.00000000  1.111111e-03 
  0.60000000  0.06666667  0.00000000  1.111111e-03 
  0.60000000  0.10000000  0.00000000  1.111111e-03 
  0.60000000  0.13333333  0.00000000  1.111111e-03 
  0.60000000  0.16666667  0.00000000  1.111111e-03 
  0.60000000  0.20000000  0.00000000  1.111111e-03 
  0.60000000  0.23333333  0.00000000  1.111111e-03 
  0.60000000  0.26666667  0.00000000  1.111111e-03 
  0.60000000  0.30000000  0.00000000  1.111111e-03 
  0.60000000  0.33333333  0.00000000  1.111111e-03 
  0.60000000  0.36666667  0.00000000  1.111111e-03 
  0.60000000  0.40000000  0.00000000  1.111111e-03 
  0.60000000  0.43333333  0.00000000  1.111111e-03 
  0.60000000  0.46666667  0.00000000  1.111111e-03 
  0.60000000  0.50000000  0.00000000  1.111111e-03 
  0.60000000  0.53333333  0.00000000  1.111111e-03 