&bands
    prefix='NbS2'
    outdir='./Output'
    filband='nbs2.bands.dat'
    lsigma(3) = .true.
/
